50
120
99
96
94
93
93
91
87
87
87
84
84
83
83
83
83
83
82
81
81
78
77
77
77
76
67
65
61
61
59
58
53
53
50
49
48
47
47
46
46
44
43
42
41
41
38
35
34
32
32
31
